
   AbsCon 1.41 (January, 2014) - defaultConfiguration

   
   instance
        framework=CSP  name=Isomorphism-/cluster/gpg/ciaran/sip-benchmarks/benchmarks/meshes-CVIU11/patterns/pattern3-/cluster/gpg/ciaran/sip-benchmarks/benchmarks/meshes-CVIU11/targets/target448
        parameters=/cluster/gpg/ciaran/sip-benchmarks/benchmarks/meshes-CVIU11/patterns/pattern3,/cluster/gpg/ciaran/sip-benchmarks/benchmarks/meshes-CVIU11/targets/target448
      

   loading variables...
        nbVariables=163  nbDomainTypes=1  nbTotalValues=424615  domainSizes=(2605:163)
          =>  wckTime=0.298  cpuTime=0.401  mem=65M868

   loading objectives...

   loading constraints...
        nbConstraints=290  nbSpecificConstraints=1  nbExtensionStructures=(2,shared:287)  nbConflictsStructures=(1,shared:287,unbuilt:2)
        degrees=(2:14)(3:29)(4:105)...(6:1)(7:1)(132:1)  arities=(1:1)(2:288)(163:1)  types=(AllDifferent:1)(ConstraintHardExtensionV-Bits:288)(ConstraintHardExtensionV-Table:1)
        tables=(1:1)  nbTotalTuples=1
          =>  wckTime=0.575  cpuTime=0.659  mem=86M123

   INFO : <!-- Start saving the XML representation -->

   INFO : <!-- Stop saving the XML representation of target448.xml -->

   Solver SolverBacktrack being built... 
          =>  wckTime=1.996  cpuTime=1.998  mem=489M912

   
   search
        run=0  nbConstraintChecks=2604  depth=(min:0,max:0,avg:1)  nbEffectivePropagations=331  nbRevisions=711  nbUselessRevisions=412
        nbAssignments=2  nbFailedAssignments=2  nbBacktracks=1  nbVisitedNodes=4  nbRestartNogoods=0
          =>  wckTime=3.17  cpuTime=5.065  mem=768M298

   
   global
        nbConstraintChecks=2604  nbEffectivePropagations=331  nbRevisions=711  nbUselessRevisions=412  nbRestartNogoods=0  solvingWckTime=3.17
        expiredTime=no  totalExploration=yes  nbFoundSolutions=0  Stop=FULL_EXPLORATION
          =>  wckTime=5.167  cpuTime=5.066  mem=768M298

s UNSATISFIABLE
d NODES 2

   totalWckTime=5.061  totalCpuTime=5.068
